\ENCODING=ISO-8859-1
\Problem name: IloCplex

Maximize
 obj: 1267 vnp3 - 84 (π,ρ)0↑e12 - 118 (π,ρ)1↑e12
      - 84 (π,ρ)2↑e12 - 58 (π,ρ)3↑e12
      - 92 (π,ρ)4↑e12 - 58 (π,ρ)5↑e12
      - 500096 (π,ρ)6↑e12 - 500084 (π,ρ)7↑e12
      - 500078 (π,ρ)8↑e12 - 140 (π,ρ)9↑e12
      - 111 (π,ρ)10↑e12 - 147 (π,ρ)11↑e12
      - 58 (π,ρ)12↑e12 - 92 (π,ρ)13↑e12
      - 58 (π,ρ)14↑e12 - 84 (π,ρ)15↑e13
      - 84 (π,ρ)16↑e13 - 84 (π,ρ)17↑e13
      - 86 (π,ρ)18↑e13 - 68 (π,ρ)19↑e13
      - 136 (π,ρ)20↑e13 - 241 (π,ρ)21↑e13
      - 317 (π,ρ)22↑e13 - 197 (π,ρ)23↑e13
      - 296 (π,ρ)24↑e13 - 317 (π,ρ)25↑e13
      - 296 (π,ρ)26↑e13 - 259 (π,ρ)27↑e13
      - 335 (π,ρ)28↑e13 - 269 (π,ρ)29↑e13
      - 92 (π,ρ)30↑e14 - 75 (π,ρ)31↑e14
      - 40 (π,ρ)32↑e14 - 42 (π,ρ)33↑e14
      - 94 (π,ρ)34↑e14 - 42 (π,ρ)35↑e14
      - 60 (π,ρ)36↑e14 - 74 (π,ρ)37↑e14
      - 50 (π,ρ)38↑e14 - 64 (π,ρ)39↑e14
      - 64 (π,ρ)40↑e14 - 98 (π,ρ)41↑e14
      - 78 (π,ρ)42↑e14 - 114 (π,ρ)43↑e14
      - 110 (π,ρ)44↑e14 - 176 (π,ρ)45↑e15
      - 178 (π,ρ)46↑e15 - 144 (π,ρ)47↑e15
      - 160 (π,ρ)48↑e15 - 226 (π,ρ)49↑e15
      - 230 (π,ρ)50↑e15 - 260 (π,ρ)51↑e15
      - 323 (π,ρ)52↑e15 - 260 (π,ρ)53↑e15
      - 246 (π,ρ)54↑e15 - 262 (π,ρ)55↑e15
      - 236 (π,ρ)56↑e15 - 158 (π,ρ)57↑e15
      - 176 (π,ρ)58↑e15 - 174 (π,ρ)59↑e15
      - 271 (π,ρ)60↑e16 - 250 (π,ρ)61↑e16
      - 301 (π,ρ)62↑e16 - 183 (π,ρ)63↑e16
      - 171 (π,ρ)64↑e16 - 198 (π,ρ)65↑e16
      - 255 (π,ρ)66↑e16 - 234 (π,ρ)67↑e16
      - 261 (π,ρ)68↑e16 + 1131 vnp4 - 22 (π,ρ)69↑e17
      - 22 (π,ρ)70↑e17 - 22 (π,ρ)71↑e17
      - 28 (π,ρ)72↑e17 - 28 (π,ρ)73↑e17
      - 28 (π,ρ)74↑e17 - 35 (π,ρ)75↑e17
      - 35 (π,ρ)76↑e17 - 35 (π,ρ)77↑e17
      - 42 (π,ρ)78↑e17 - 42 (π,ρ)79↑e17
      - 56 (π,ρ)80↑e17 - 47 (π,ρ)81↑e17
      - 47 (π,ρ)82↑e17 - 47 (π,ρ)83↑e17
      - 41 (π,ρ)84↑e18 - 45 (π,ρ)85↑e19
      - 196 (π,ρ)86↑e20 - 115 (π,ρ)87↑e20
      - 90 (π,ρ)88↑e20 - 145 (π,ρ)89↑e20
      - 226 (π,ρ)90↑e20 - 170 (π,ρ)91↑e20
      - 137 (π,ρ)92↑e20 - 140 (π,ρ)93↑e20
      - 137 (π,ρ)94↑e20 - 213 (π,ρ)95↑e20
      - 301 (π,ρ)96↑e20 - 229 (π,ρ)97↑e20
      - 215 (π,ρ)98↑e20 - 296 (π,ρ)99↑e20
      - 230 (π,ρ)100↑e20 - 36 (π,ρ)101↑e21
      - 26 (π,ρ)102↑e22 - 26 (π,ρ)103↑e22
      - 26 (π,ρ)104↑e22 - 31 (π,ρ)105↑e22
      - 52 (π,ρ)106↑e22 - 37 (π,ρ)107↑e22
      - 61 (π,ρ)108↑e22
Subject To
 _EmbdConstr_vnp3e12#0:  vnp3 - (π,ρ)0↑e12 - (π,ρ)1↑e12
                         - (π,ρ)2↑e12 - (π,ρ)3↑e12
                         - (π,ρ)4↑e12 - (π,ρ)5↑e12
                         - (π,ρ)6↑e12 - (π,ρ)7↑e12
                         - (π,ρ)8↑e12 - (π,ρ)9↑e12
                         - (π,ρ)10↑e12 - (π,ρ)11↑e12
                         - (π,ρ)12↑e12 - (π,ρ)13↑e12
                         - (π,ρ)14↑e12  = 0
 _EmbdConstr_vnp3e13#1:  vnp3 - (π,ρ)15↑e13 - (π,ρ)16↑e13
                         - (π,ρ)17↑e13 - (π,ρ)18↑e13
                         - (π,ρ)19↑e13 - (π,ρ)20↑e13
                         - (π,ρ)21↑e13 - (π,ρ)22↑e13
                         - (π,ρ)23↑e13 - (π,ρ)24↑e13
                         - (π,ρ)25↑e13 - (π,ρ)26↑e13
                         - (π,ρ)27↑e13 - (π,ρ)28↑e13
                         - (π,ρ)29↑e13  = 0
 _EmbdConstr_vnp3e14#2:  vnp3 - (π,ρ)30↑e14 - (π,ρ)31↑e14
                         - (π,ρ)32↑e14 - (π,ρ)33↑e14
                         - (π,ρ)34↑e14 - (π,ρ)35↑e14
                         - (π,ρ)36↑e14 - (π,ρ)37↑e14
                         - (π,ρ)38↑e14 - (π,ρ)39↑e14
                         - (π,ρ)40↑e14 - (π,ρ)41↑e14
                         - (π,ρ)42↑e14 - (π,ρ)43↑e14
                         - (π,ρ)44↑e14  = 0
 _EmbdConstr_vnp3e15#3:  vnp3 - (π,ρ)45↑e15 - (π,ρ)46↑e15
                         - (π,ρ)47↑e15 - (π,ρ)48↑e15
                         - (π,ρ)49↑e15 - (π,ρ)50↑e15
                         - (π,ρ)51↑e15 - (π,ρ)52↑e15
                         - (π,ρ)53↑e15 - (π,ρ)54↑e15
                         - (π,ρ)55↑e15 - (π,ρ)56↑e15
                         - (π,ρ)57↑e15 - (π,ρ)58↑e15
                         - (π,ρ)59↑e15  = 0
 _EmbdConstr_vnp3e16#4:  vnp3 - (π,ρ)60↑e16 - (π,ρ)61↑e16
                         - (π,ρ)62↑e16 - (π,ρ)63↑e16
                         - (π,ρ)64↑e16 - (π,ρ)65↑e16
                         - (π,ρ)66↑e16 - (π,ρ)67↑e16
                         - (π,ρ)68↑e16  = 0
 _EmbdConstr_vnp4e17#5:  vnp4 - (π,ρ)69↑e17 - (π,ρ)70↑e17
                         - (π,ρ)71↑e17 - (π,ρ)72↑e17
                         - (π,ρ)73↑e17 - (π,ρ)74↑e17
                         - (π,ρ)75↑e17 - (π,ρ)76↑e17
                         - (π,ρ)77↑e17 - (π,ρ)78↑e17
                         - (π,ρ)79↑e17 - (π,ρ)80↑e17
                         - (π,ρ)81↑e17 - (π,ρ)82↑e17
                         - (π,ρ)83↑e17  = 0
 _EmbdConstr_vnp4e18#6:  vnp4 - (π,ρ)84↑e18  = 0
 _EmbdConstr_vnp4e19#7:  vnp4 - (π,ρ)85↑e19  = 0
 _EmbdConstr_vnp4e20#8:  vnp4 - (π,ρ)86↑e20 - (π,ρ)87↑e20
                         - (π,ρ)88↑e20 - (π,ρ)89↑e20
                         - (π,ρ)90↑e20 - (π,ρ)91↑e20
                         - (π,ρ)92↑e20 - (π,ρ)93↑e20
                         - (π,ρ)94↑e20 - (π,ρ)95↑e20
                         - (π,ρ)96↑e20 - (π,ρ)97↑e20
                         - (π,ρ)98↑e20 - (π,ρ)99↑e20
                         - (π,ρ)100↑e20  = 0
 _EmbdConstr_vnp4e21#9:  vnp4 - (π,ρ)101↑e21  = 0
 _EmbdConstr_vnp4e22#10: vnp4 - (π,ρ)102↑e22
                         - (π,ρ)103↑e22 - (π,ρ)104↑e22
                         - (π,ρ)105↑e22 - (π,ρ)106↑e22
                         - (π,ρ)107↑e22 - (π,ρ)108↑e22
                          = 0
 BwCapConstr_slink1#11:  <= 9
 BwCapConstr_slink2#12:  (π,ρ)31↑e14 <= 10
 BwCapConstr_slink3#13:  2 (π,ρ)6↑e12 + 2 (π,ρ)7↑e12
                         + 2 (π,ρ)8↑e12 + 2 (π,ρ)30↑e14
                         + 2 (π,ρ)31↑e14 + 2 (π,ρ)33↑e14
                         + 2 (π,ρ)34↑e14 + 2 (π,ρ)35↑e14
                         + (π,ρ)37↑e14 + 2 (π,ρ)39↑e14
                         + 2 (π,ρ)40↑e14 + 2 (π,ρ)41↑e14
                         + 2 (π,ρ)42↑e14 + 2 (π,ρ)43↑e14
                         + 2 (π,ρ)44↑e14 + (π,ρ)78↑e17
                         + (π,ρ)79↑e17 + (π,ρ)80↑e17
                         + 2 (π,ρ)97↑e20 + 5 (π,ρ)98↑e20
                         + 5 (π,ρ)99↑e20 + 5 (π,ρ)100↑e20
                         <= 8
 BwCapConstr_slink4#14:  (π,ρ)69↑e17 + (π,ρ)70↑e17
                         + (π,ρ)71↑e17 + (π,ρ)72↑e17
                         + (π,ρ)73↑e17 + (π,ρ)74↑e17
                         + (π,ρ)78↑e17 + (π,ρ)79↑e17
                         + (π,ρ)80↑e17 + (π,ρ)81↑e17
                         + (π,ρ)82↑e17 + (π,ρ)83↑e17
                         + 2 (π,ρ)84↑e18 + 5 (π,ρ)86↑e20
                         + 5 (π,ρ)90↑e20 + 5 (π,ρ)92↑e20
                         + 5 (π,ρ)93↑e20 + 5 (π,ρ)94↑e20
                         + 5 (π,ρ)96↑e20 + 5 (π,ρ)99↑e20
                         + (π,ρ)105↑e22 + (π,ρ)106↑e22
                         + (π,ρ)107↑e22 + (π,ρ)108↑e22
                         <= 19
 BwCapConstr_slink5#15:  2 (π,ρ)6↑e12 + 2 (π,ρ)7↑e12
                         + 2 (π,ρ)8↑e12 + 2 (π,ρ)9↑e12
                         + 2 (π,ρ)30↑e14 + 2 (π,ρ)37↑e14
                         + 2 (π,ρ)39↑e14 + 2 (π,ρ)40↑e14
                         + 2 (π,ρ)41↑e14 + 2 (π,ρ)62↑e16
                         <= 13
 BwCapConstr_slink6#16:  (π,ρ)11↑e12 + 4 (π,ρ)52↑e15
                         + 2 (π,ρ)61↑e16 <= 11
 BwCapConstr_slink7#17:  2 (π,ρ)11↑e12 + 2 (π,ρ)33↑e14
                         + 2 (π,ρ)34↑e14 + 2 (π,ρ)35↑e14
                         + 2 (π,ρ)36↑e14 + 2 (π,ρ)62↑e16
                         <= 11
 BwCapConstr_slink8#18:  2 (π,ρ)26↑e13 + 2 (π,ρ)34↑e14
                         + 2 (π,ρ)42↑e14 + 2 (π,ρ)43↑e14
                         + 2 (π,ρ)44↑e14 + 4 (π,ρ)53↑e15
                         + (π,ρ)78↑e17 + (π,ρ)79↑e17
                         + (π,ρ)80↑e17 + 5 (π,ρ)98↑e20
                         + 5 (π,ρ)99↑e20 + 5 (π,ρ)100↑e20
                         <= 3
 BwCapConstr_slink9#19:  2 (π,ρ)24↑e13 + 2 (π,ρ)25↑e13
                         + 2 (π,ρ)30↑e14 + 2 (π,ρ)31↑e14
                         + 2 (π,ρ)32↑e14 + 2 (π,ρ)42↑e14
                         + 2 (π,ρ)43↑e14 + 2 (π,ρ)44↑e14
                         + 4 (π,ρ)45↑e15 + 4 (π,ρ)46↑e15
                         + 4 (π,ρ)47↑e15 + 4 (π,ρ)50↑e15
                         + 4 (π,ρ)51↑e15 + 3 (π,ρ)52↑e15
                         + 4 (π,ρ)57↑e15 + 4 (π,ρ)58↑e15
                         + 4 (π,ρ)59↑e15 <= 12
 BwCapConstr_slink10#20: 100000 (π,ρ)6↑e12
                         + 100000 (π,ρ)7↑e12
                         + 100000 (π,ρ)8↑e12
                         + 2 (π,ρ)9↑e12 + 2 (π,ρ)10↑e12
                         + 2 (π,ρ)11↑e12 + 2 (π,ρ)30↑e14
                         + 2 (π,ρ)31↑e14 + 2 (π,ρ)32↑e14
                         + 2 (π,ρ)34↑e14 + 2 (π,ρ)36↑e14
                         + 2 (π,ρ)37↑e14 + 2 (π,ρ)38↑e14
                         + (π,ρ)72↑e17 + (π,ρ)73↑e17
                         + (π,ρ)74↑e17 + (π,ρ)81↑e17
                         + (π,ρ)82↑e17 + (π,ρ)83↑e17
                         + 5 (π,ρ)89↑e20 + 5 (π,ρ)90↑e20
                         + 5 (π,ρ)91↑e20 + 2 (π,ρ)95↑e20
                         + (π,ρ)107↑e22 <= 17
 BwCapConstr_slink11#21: 2 (π,ρ)0↑e12 + 2 (π,ρ)1↑e12
                         + 2 (π,ρ)2↑e12 + 2 (π,ρ)3↑e12
                         + 2 (π,ρ)4↑e12 + 2 (π,ρ)5↑e12
                         + 2 (π,ρ)12↑e12 + 2 (π,ρ)13↑e12
                         + 2 (π,ρ)14↑e12 + (π,ρ)69↑e17
                         + (π,ρ)70↑e17 + (π,ρ)71↑e17
                         + (π,ρ)75↑e17 + (π,ρ)84↑e18
                         + 5 (π,ρ)85↑e19 + 5 (π,ρ)86↑e20
                         + 5 (π,ρ)87↑e20 + 5 (π,ρ)88↑e20
                         + 5 (π,ρ)95↑e20 + 5 (π,ρ)96↑e20
                         + 5 (π,ρ)97↑e20 + (π,ρ)105↑e22
                         + (π,ρ)106↑e22 + (π,ρ)108↑e22
                         <= 11
 BwCapConstr_slink12#22: 2 (π,ρ)1↑e12 + 2 (π,ρ)4↑e12
                         + 2 (π,ρ)13↑e12 + 4 (π,ρ)20↑e13
                         + 4 (π,ρ)54↑e15 + 4 (π,ρ)55↑e15
                         + 4 (π,ρ)56↑e15 <= 7
 BwCapConstr_slink13#23: 2 (π,ρ)7↑e12 + (π,ρ)10↑e12
                         + 2 (π,ρ)30↑e14 + 2 (π,ρ)31↑e14
                         + 2 (π,ρ)32↑e14 + 2 (π,ρ)33↑e14
                         + 2 (π,ρ)34↑e14 + 2 (π,ρ)35↑e14
                         + 2 (π,ρ)38↑e14 + 2 (π,ρ)42↑e14
                         + 2 (π,ρ)43↑e14 + 2 (π,ρ)44↑e14
                         + 4 (π,ρ)45↑e15 + 4 (π,ρ)46↑e15
                         + 4 (π,ρ)47↑e15 + 4 (π,ρ)48↑e15
                         + 3 (π,ρ)49↑e15 + 3 (π,ρ)50↑e15
                         + 4 (π,ρ)51↑e15 + 4 (π,ρ)53↑e15
                         + 4 (π,ρ)54↑e15 + 4 (π,ρ)55↑e15
                         + 4 (π,ρ)56↑e15 + 4 (π,ρ)57↑e15
                         + 4 (π,ρ)58↑e15 + 4 (π,ρ)59↑e15
                         + (π,ρ)61↑e16 + (π,ρ)62↑e16
                         + (π,ρ)64↑e16 + (π,ρ)65↑e16
                         + (π,ρ)67↑e16 + (π,ρ)68↑e16 <= 8
 BwCapConstr_slink14#24: 2 (π,ρ)39↑e14 + 2 (π,ρ)40↑e14
                         + 2 (π,ρ)41↑e14 + 4 (π,ρ)52↑e15
                         + (π,ρ)60↑e16 + (π,ρ)63↑e16
                         + (π,ρ)66↑e16 <= 16
 BwCapConstr_slink15#25: 2 (π,ρ)6↑e12 + 2 (π,ρ)7↑e12
                         + 2 (π,ρ)8↑e12 + 2 (π,ρ)9↑e12
                         + 2 (π,ρ)11↑e12 + 3 (π,ρ)25↑e13
                         + 2 (π,ρ)60↑e16 + 3 (π,ρ)61↑e16
                         + 4 (π,ρ)62↑e16 + 3 (π,ρ)64↑e16
                         + 4 (π,ρ)65↑e16 + 3 (π,ρ)67↑e16
                         + 4 (π,ρ)68↑e16 <= 6
 BwCapConstr_slink16#26: 2 (π,ρ)10↑e12 + 4 (π,ρ)56↑e15
                         + 4 (π,ρ)60↑e16 + 4 (π,ρ)61↑e16
                         + 4 (π,ρ)62↑e16 <= 1
 BwCapConstr_slink17#27: (π,ρ)75↑e17 + (π,ρ)76↑e17
                         + (π,ρ)77↑e17 + (π,ρ)80↑e17
                         + 4 (π,ρ)86↑e20 + 4 (π,ρ)90↑e20
                         + 5 (π,ρ)92↑e20 + 5 (π,ρ)93↑e20
                         + 5 (π,ρ)94↑e20 + 4 (π,ρ)96↑e20
                         + 4 (π,ρ)99↑e20 + (π,ρ)102↑e22
                         + (π,ρ)103↑e22 + (π,ρ)104↑e22
                         + (π,ρ)105↑e22 + (π,ρ)106↑e22
                         + (π,ρ)107↑e22 + (π,ρ)108↑e22
                         <= 19
 BwCapConstr_slink18#28: <= 5
 BwCapConstr_slink19#29: 2 (π,ρ)6↑e12 <= 2
 BwCapConstr_slink20#30: 2 (π,ρ)29↑e13 + 2 (π,ρ)36↑e14
                         + 2 (π,ρ)37↑e14 + 2 (π,ρ)38↑e14
                         + 2 (π,ρ)42↑e14 + 2 (π,ρ)43↑e14
                         + 2 (π,ρ)44↑e14 + 3 (π,ρ)45↑e15
                         + 4 (π,ρ)46↑e15 + 2 (π,ρ)47↑e15
                         + 4 (π,ρ)48↑e15 + 4 (π,ρ)49↑e15
                         + 4 (π,ρ)50↑e15 + 4 (π,ρ)51↑e15
                         + 4 (π,ρ)52↑e15 + 4 (π,ρ)53↑e15
                         + 4 (π,ρ)54↑e15 + 4 (π,ρ)55↑e15
                         + 4 (π,ρ)63↑e16 + 4 (π,ρ)64↑e16
                         + 4 (π,ρ)65↑e16 + 4 (π,ρ)66↑e16
                         + 4 (π,ρ)67↑e16 + 4 (π,ρ)68↑e16
                         <= 3
 BwCapConstr_slink21#31: 2 (π,ρ)9↑e12 + 2 (π,ρ)10↑e12
                         + 2 (π,ρ)11↑e12 + 4 (π,ρ)27↑e13
                         + 4 (π,ρ)28↑e13 + 4 (π,ρ)29↑e13
                         + 4 (π,ρ)63↑e16 + 4 (π,ρ)64↑e16
                         + 4 (π,ρ)65↑e16 <= 2
 BwCapConstr_slink22#32: 2 (π,ρ)9↑e12 + 2 (π,ρ)10↑e12
                         + 2 (π,ρ)11↑e12 + 4 (π,ρ)27↑e13
                         + 4 (π,ρ)28↑e13 + 4 (π,ρ)29↑e13
                         + 2 (π,ρ)36↑e14 + 2 (π,ρ)37↑e14
                         + 2 (π,ρ)38↑e14 + 2 (π,ρ)41↑e14
                         + 2 (π,ρ)44↑e14 + 4 (π,ρ)48↑e15
                         + 4 (π,ρ)49↑e15 + 4 (π,ρ)50↑e15
                         + 4 (π,ρ)54↑e15 + 4 (π,ρ)55↑e15
                         + 4 (π,ρ)56↑e15 + (π,ρ)58↑e15
                         <= 1
 BwCapConstr_slink23#33: 2 (π,ρ)43↑e14 + 4 (π,ρ)49↑e15
                         + 4 (π,ρ)51↑e15 + 4 (π,ρ)52↑e15
                         + 4 (π,ρ)53↑e15 + 4 (π,ρ)66↑e16
                         + 4 (π,ρ)67↑e16 + 4 (π,ρ)68↑e16
                         <= 0
 BwCapConstr_slink24#34: <= 16
 BwCapConstr_slink25#35: (π,ρ)23↑e13 + 4 (π,ρ)27↑e13
                         + 4 (π,ρ)28↑e13 + 4 (π,ρ)29↑e13
                         + 4 (π,ρ)45↑e15 + 4 (π,ρ)46↑e15
                         + 4 (π,ρ)47↑e15 + 4 (π,ρ)48↑e15
                         + 4 (π,ρ)49↑e15 + 4 (π,ρ)50↑e15
                         + 3 (π,ρ)52↑e15 + 4 (π,ρ)54↑e15
                         + 4 (π,ρ)55↑e15 + 4 (π,ρ)56↑e15
                         + (π,ρ)81↑e17 + (π,ρ)82↑e17
                         + (π,ρ)83↑e17 + 5 (π,ρ)87↑e20
                         + 5 (π,ρ)100↑e20 <= 5
 BwCapConstr_slink26#36: 4 (π,ρ)57↑e15 + 4 (π,ρ)58↑e15
                         + 4 (π,ρ)59↑e15 + (π,ρ)72↑e17
                         + (π,ρ)73↑e17 + (π,ρ)74↑e17
                         + (π,ρ)76↑e17 + (π,ρ)77↑e17
                         + (π,ρ)78↑e17 + (π,ρ)79↑e17
                         + (π,ρ)80↑e17 + 2 (π,ρ)85↑e19
                         + 5 (π,ρ)89↑e20 + 5 (π,ρ)90↑e20
                         + 5 (π,ρ)91↑e20 + 2 (π,ρ)97↑e20
                         + 5 (π,ρ)98↑e20 + 5 (π,ρ)99↑e20
                         + 5 (π,ρ)100↑e20 + (π,ρ)107↑e22
                         <= 0
 BwCapConstr_slink27#37: 2 (π,ρ)0↑e12 + 2 (π,ρ)1↑e12
                         + 2 (π,ρ)2↑e12 + 2 (π,ρ)46↑e15
                         + 4 (π,ρ)57↑e15 + 4 (π,ρ)58↑e15
                         + 4 (π,ρ)59↑e15 + (π,ρ)81↑e17
                         + (π,ρ)82↑e17 + (π,ρ)83↑e17
                         + 5 (π,ρ)91↑e20 + (π,ρ)108↑e22
                         <= 7
 BwCapConstr_slink28#38: 4 (π,ρ)21↑e13 + 4 (π,ρ)22↑e13
                         + 4 (π,ρ)23↑e13 + 4 (π,ρ)24↑e13
                         + 4 (π,ρ)25↑e13 + 4 (π,ρ)26↑e13
                         + (π,ρ)27↑e13 + (π,ρ)28↑e13
                         + (π,ρ)29↑e13 + 2 (π,ρ)45↑e15
                         + 4 (π,ρ)51↑e15 + 4 (π,ρ)52↑e15
                         + 4 (π,ρ)53↑e15 + 2 (π,ρ)54↑e15
                         + 2 (π,ρ)55↑e15 + 2 (π,ρ)57↑e15
                         + 2 (π,ρ)58↑e15 + 2 (π,ρ)59↑e15
                         <= 10
 BwCapConstr_slink30#39: 4 (π,ρ)21↑e13 + 4 (π,ρ)22↑e13
                         + 4 (π,ρ)23↑e13 + 4 (π,ρ)24↑e13
                         + 4 (π,ρ)25↑e13 + 4 (π,ρ)26↑e13
                         + 4 (π,ρ)28↑e13 + (π,ρ)55↑e15
                         + (π,ρ)59↑e15 + 4 (π,ρ)66↑e16
                         + 4 (π,ρ)67↑e16 + 4 (π,ρ)68↑e16
                         <= 0
 BwCapConstr_slink31#40: 4 (π,ρ)22↑e13 + 4 (π,ρ)24↑e13
                         + 4 (π,ρ)25↑e13 + 4 (π,ρ)26↑e13
                         <= 0
 BwCapConstr_slink32#41: 4 (π,ρ)22↑e13 + 4 (π,ρ)28↑e13
                         <= 12
 BwCapConstr_slink33#42: 4 (π,ρ)60↑e16 + 4 (π,ρ)61↑e16
                         + 4 (π,ρ)62↑e16 <= 7
 BwCapConstr_slink34#43: 2 (π,ρ)6↑e12 + 2 (π,ρ)7↑e12
                         + 2 (π,ρ)8↑e12 + 4 (π,ρ)21↑e13
                         + 4 (π,ρ)22↑e13 + 3 (π,ρ)27↑e13
                         + 3 (π,ρ)28↑e13 + 3 (π,ρ)29↑e13
                         + 3 (π,ρ)60↑e16 + 3 (π,ρ)63↑e16
                         + 3 (π,ρ)64↑e16 + 3 (π,ρ)65↑e16
                         + 3 (π,ρ)66↑e16 <= 1
 BwCapConstr_slink35#44: 2 (π,ρ)9↑e12 + 2 (π,ρ)10↑e12
                         + 2 (π,ρ)11↑e12 + (π,ρ)18↑e13
                         + 4 (π,ρ)21↑e13 + 4 (π,ρ)22↑e13
                         + 4 (π,ρ)23↑e13 + 4 (π,ρ)27↑e13
                         + 4 (π,ρ)28↑e13 + 4 (π,ρ)29↑e13
                         + 4 (π,ρ)60↑e16 + 4 (π,ρ)61↑e16
                         + 4 (π,ρ)62↑e16 + 4 (π,ρ)63↑e16
                         + 4 (π,ρ)64↑e16 + 4 (π,ρ)65↑e16
                         + 4 (π,ρ)66↑e16 + 4 (π,ρ)67↑e16
                         + 4 (π,ρ)68↑e16 <= 0
 BwCapConstr_slink36#45: 2 (π,ρ)0↑e12 + 2 (π,ρ)1↑e12
                         + 2 (π,ρ)2↑e12 + 2 (π,ρ)3↑e12
                         + 2 (π,ρ)4↑e12 + 2 (π,ρ)5↑e12
                         + 2 (π,ρ)12↑e12 + 2 (π,ρ)13↑e12
                         + 2 (π,ρ)14↑e12 + 4 (π,ρ)15↑e13
                         + 4 (π,ρ)16↑e13 + 4 (π,ρ)17↑e13
                         + 4 (π,ρ)18↑e13 + 4 (π,ρ)19↑e13
                         + 4 (π,ρ)20↑e13 + 4 (π,ρ)24↑e13
                         + 4 (π,ρ)25↑e13 + 4 (π,ρ)26↑e13
                         <= 0
 BwCapConstr_slink37#46: 2 (π,ρ)0↑e12 + 2 (π,ρ)1↑e12
                         + 2 (π,ρ)2↑e12 + 4 (π,ρ)15↑e13
                         + 4 (π,ρ)16↑e13 + 4 (π,ρ)17↑e13
                         + (π,ρ)21↑e13 + (π,ρ)22↑e13
                         + 2 (π,ρ)47↑e15 + (π,ρ)71↑e17
                         + (π,ρ)74↑e17 + (π,ρ)80↑e17
                         <= 11
 BwCapConstr_slink38#47: 4 (π,ρ)18↑e13 + 4 (π,ρ)19↑e13
                         + 4 (π,ρ)20↑e13 + (π,ρ)108↑e22
                         <= 17
 BwCapConstr_slink39#48: 2 (π,ρ)12↑e12 + 2 (π,ρ)13↑e12
                         + 2 (π,ρ)14↑e12 + 4 (π,ρ)18↑e13
                         + 4 (π,ρ)19↑e13 + 4 (π,ρ)20↑e13
                         + (π,ρ)83↑e17 <= 7
 BwCapConstr_slink40#49: 2 (π,ρ)3↑e12 + 2 (π,ρ)4↑e12
                         + 2 (π,ρ)5↑e12 <= 3
 BwCapConstr_slink41#50: 2 (π,ρ)12↑e12 + 2 (π,ρ)13↑e12
                         + 2 (π,ρ)14↑e12 + 5 (π,ρ)95↑e20
                         + 5 (π,ρ)96↑e20 + 5 (π,ρ)97↑e20
                         + (π,ρ)106↑e22 <= 10
 BwCapConstr_slink42#51: 2 (π,ρ)3↑e12 + 2 (π,ρ)4↑e12
                         + 2 (π,ρ)5↑e12 + (π,ρ)75↑e17
                         + (π,ρ)76↑e17 + (π,ρ)77↑e17
                         + 2 (π,ρ)84↑e18 + 5 (π,ρ)86↑e20
                         + 5 (π,ρ)87↑e20 + 5 (π,ρ)88↑e20
                         + 5 (π,ρ)89↑e20 + 5 (π,ρ)90↑e20
                         + 5 (π,ρ)91↑e20 + (π,ρ)92↑e20
                         + 2 (π,ρ)93↑e20 + 2 (π,ρ)95↑e20
                         + 5 (π,ρ)98↑e20 + 5 (π,ρ)99↑e20
                         + 5 (π,ρ)100↑e20
                         + 4 (π,ρ)101↑e21 + (π,ρ)102↑e22
                         + (π,ρ)104↑e22 + (π,ρ)105↑e22
                         + (π,ρ)107↑e22 <= 14
 BwCapConstr_slink43#52: (π,ρ)70↑e17 + (π,ρ)73↑e17
                         + (π,ρ)79↑e17 + (π,ρ)82↑e17
                         + 2 (π,ρ)87↑e20 + 2 (π,ρ)88↑e20
                         + 5 (π,ρ)89↑e20 + 5 (π,ρ)91↑e20
                         + (π,ρ)94↑e20 + 5 (π,ρ)95↑e20
                         + 5 (π,ρ)96↑e20 + 5 (π,ρ)97↑e20
                         + 5 (π,ρ)98↑e20 + 5 (π,ρ)100↑e20
                         + (π,ρ)103↑e22 + (π,ρ)106↑e22
                         + (π,ρ)108↑e22 <= 8
 BwCapConstr_slink44#53: (π,ρ)69↑e17 + (π,ρ)72↑e17
                         + (π,ρ)75↑e17 + (π,ρ)76↑e17
                         + (π,ρ)77↑e17 + (π,ρ)78↑e17
                         + (π,ρ)81↑e17 + 4 (π,ρ)86↑e20
                         + 4 (π,ρ)90↑e20 + 5 (π,ρ)92↑e20
                         + 5 (π,ρ)93↑e20 + 5 (π,ρ)94↑e20
                         + 4 (π,ρ)96↑e20 + 4 (π,ρ)99↑e20
                         + (π,ρ)102↑e22 + (π,ρ)103↑e22
                         + (π,ρ)104↑e22 <= 19
Bounds
 0 <= vnp3 <= 1
 0 <= (π,ρ)0↑e12 <= 1
 0 <= (π,ρ)1↑e12 <= 1
 0 <= (π,ρ)2↑e12 <= 1
 0 <= (π,ρ)3↑e12 <= 1
 0 <= (π,ρ)4↑e12 <= 1
 0 <= (π,ρ)5↑e12 <= 1
 0 <= (π,ρ)6↑e12 <= 1
 0 <= (π,ρ)7↑e12 <= 1
 0 <= (π,ρ)8↑e12 <= 1
 0 <= (π,ρ)9↑e12 <= 1
 0 <= (π,ρ)10↑e12 <= 1
 0 <= (π,ρ)11↑e12 <= 1
 0 <= (π,ρ)12↑e12 <= 1
 0 <= (π,ρ)13↑e12 <= 1
 0 <= (π,ρ)14↑e12 <= 1
 0 <= (π,ρ)15↑e13 <= 1
 0 <= (π,ρ)16↑e13 <= 1
 0 <= (π,ρ)17↑e13 <= 1
 0 <= (π,ρ)18↑e13 <= 1
 0 <= (π,ρ)19↑e13 <= 1
 0 <= (π,ρ)20↑e13 <= 1
 0 <= (π,ρ)21↑e13 <= 1
 0 <= (π,ρ)22↑e13 <= 1
 0 <= (π,ρ)23↑e13 <= 1
 0 <= (π,ρ)24↑e13 <= 1
 0 <= (π,ρ)25↑e13 <= 1
 0 <= (π,ρ)26↑e13 <= 1
 0 <= (π,ρ)27↑e13 <= 1
 0 <= (π,ρ)28↑e13 <= 1
 0 <= (π,ρ)29↑e13 <= 1
 0 <= (π,ρ)30↑e14 <= 1
 0 <= (π,ρ)31↑e14 <= 1
 0 <= (π,ρ)32↑e14 <= 1
 0 <= (π,ρ)33↑e14 <= 1
 0 <= (π,ρ)34↑e14 <= 1
 0 <= (π,ρ)35↑e14 <= 1
 0 <= (π,ρ)36↑e14 <= 1
 0 <= (π,ρ)37↑e14 <= 1
 0 <= (π,ρ)38↑e14 <= 1
 0 <= (π,ρ)39↑e14 <= 1
 0 <= (π,ρ)40↑e14 <= 1
 0 <= (π,ρ)41↑e14 <= 1
 0 <= (π,ρ)42↑e14 <= 1
 0 <= (π,ρ)43↑e14 <= 1
 0 <= (π,ρ)44↑e14 <= 1
 0 <= (π,ρ)45↑e15 <= 1
 0 <= (π,ρ)46↑e15 <= 1
 0 <= (π,ρ)47↑e15 <= 1
 0 <= (π,ρ)48↑e15 <= 1
 0 <= (π,ρ)49↑e15 <= 1
 0 <= (π,ρ)50↑e15 <= 1
 0 <= (π,ρ)51↑e15 <= 1
 0 <= (π,ρ)52↑e15 <= 1
 0 <= (π,ρ)53↑e15 <= 1
 0 <= (π,ρ)54↑e15 <= 1
 0 <= (π,ρ)55↑e15 <= 1
 0 <= (π,ρ)56↑e15 <= 1
 0 <= (π,ρ)57↑e15 <= 1
 0 <= (π,ρ)58↑e15 <= 1
 0 <= (π,ρ)59↑e15 <= 1
 0 <= (π,ρ)60↑e16 <= 1
 0 <= (π,ρ)61↑e16 <= 1
 0 <= (π,ρ)62↑e16 <= 1
 0 <= (π,ρ)63↑e16 <= 1
 0 <= (π,ρ)64↑e16 <= 1
 0 <= (π,ρ)65↑e16 <= 1
 0 <= (π,ρ)66↑e16 <= 1
 0 <= (π,ρ)67↑e16 <= 1
 0 <= (π,ρ)68↑e16 <= 1
 0 <= vnp4 <= 1
 0 <= (π,ρ)69↑e17 <= 1
 0 <= (π,ρ)70↑e17 <= 1
 0 <= (π,ρ)71↑e17 <= 1
 0 <= (π,ρ)72↑e17 <= 1
 0 <= (π,ρ)73↑e17 <= 1
 0 <= (π,ρ)74↑e17 <= 1
 0 <= (π,ρ)75↑e17 <= 1
 0 <= (π,ρ)76↑e17 <= 1
 0 <= (π,ρ)77↑e17 <= 1
 0 <= (π,ρ)78↑e17 <= 1
 0 <= (π,ρ)79↑e17 <= 1
 0 <= (π,ρ)80↑e17 <= 1
 0 <= (π,ρ)81↑e17 <= 1
 0 <= (π,ρ)82↑e17 <= 1
 0 <= (π,ρ)83↑e17 <= 1
 0 <= (π,ρ)84↑e18 <= 1
 0 <= (π,ρ)85↑e19 <= 1
 0 <= (π,ρ)86↑e20 <= 1
 0 <= (π,ρ)87↑e20 <= 1
 0 <= (π,ρ)88↑e20 <= 1
 0 <= (π,ρ)89↑e20 <= 1
 0 <= (π,ρ)90↑e20 <= 1
 0 <= (π,ρ)91↑e20 <= 1
 0 <= (π,ρ)92↑e20 <= 1
 0 <= (π,ρ)93↑e20 <= 1
 0 <= (π,ρ)94↑e20 <= 1
 0 <= (π,ρ)95↑e20 <= 1
 0 <= (π,ρ)96↑e20 <= 1
 0 <= (π,ρ)97↑e20 <= 1
 0 <= (π,ρ)98↑e20 <= 1
 0 <= (π,ρ)99↑e20 <= 1
 0 <= (π,ρ)100↑e20 <= 1
 0 <= (π,ρ)101↑e21 <= 1
 0 <= (π,ρ)102↑e22 <= 1
 0 <= (π,ρ)103↑e22 <= 1
 0 <= (π,ρ)104↑e22 <= 1
 0 <= (π,ρ)105↑e22 <= 1
 0 <= (π,ρ)106↑e22 <= 1
 0 <= (π,ρ)107↑e22 <= 1
 0 <= (π,ρ)108↑e22 <= 1
Binaries
 vnp3  (π,ρ)0↑e12  (π,ρ)1↑e12  (π,ρ)2↑e12 
 (π,ρ)3↑e12  (π,ρ)4↑e12  (π,ρ)5↑e12 
 (π,ρ)6↑e12  (π,ρ)7↑e12  (π,ρ)8↑e12 
 (π,ρ)9↑e12  (π,ρ)10↑e12  (π,ρ)11↑e12 
 (π,ρ)12↑e12  (π,ρ)13↑e12  (π,ρ)14↑e12 
 (π,ρ)15↑e13  (π,ρ)16↑e13  (π,ρ)17↑e13 
 (π,ρ)18↑e13  (π,ρ)19↑e13  (π,ρ)20↑e13 
 (π,ρ)21↑e13  (π,ρ)22↑e13  (π,ρ)23↑e13 
 (π,ρ)24↑e13  (π,ρ)25↑e13  (π,ρ)26↑e13 
 (π,ρ)27↑e13  (π,ρ)28↑e13  (π,ρ)29↑e13 
 (π,ρ)30↑e14  (π,ρ)31↑e14  (π,ρ)32↑e14 
 (π,ρ)33↑e14  (π,ρ)34↑e14  (π,ρ)35↑e14 
 (π,ρ)36↑e14  (π,ρ)37↑e14  (π,ρ)38↑e14 
 (π,ρ)39↑e14  (π,ρ)40↑e14  (π,ρ)41↑e14 
 (π,ρ)42↑e14  (π,ρ)43↑e14  (π,ρ)44↑e14 
 (π,ρ)45↑e15  (π,ρ)46↑e15  (π,ρ)47↑e15 
 (π,ρ)48↑e15  (π,ρ)49↑e15  (π,ρ)50↑e15 
 (π,ρ)51↑e15  (π,ρ)52↑e15  (π,ρ)53↑e15 
 (π,ρ)54↑e15  (π,ρ)55↑e15  (π,ρ)56↑e15 
 (π,ρ)57↑e15  (π,ρ)58↑e15  (π,ρ)59↑e15 
 (π,ρ)60↑e16  (π,ρ)61↑e16  (π,ρ)62↑e16 
 (π,ρ)63↑e16  (π,ρ)64↑e16  (π,ρ)65↑e16 
 (π,ρ)66↑e16  (π,ρ)67↑e16  (π,ρ)68↑e16  vnp4 
 (π,ρ)69↑e17  (π,ρ)70↑e17  (π,ρ)71↑e17 
 (π,ρ)72↑e17  (π,ρ)73↑e17  (π,ρ)74↑e17 
 (π,ρ)75↑e17  (π,ρ)76↑e17  (π,ρ)77↑e17 
 (π,ρ)78↑e17  (π,ρ)79↑e17  (π,ρ)80↑e17 
 (π,ρ)81↑e17  (π,ρ)82↑e17  (π,ρ)83↑e17 
 (π,ρ)84↑e18  (π,ρ)85↑e19  (π,ρ)86↑e20 
 (π,ρ)87↑e20  (π,ρ)88↑e20  (π,ρ)89↑e20 
 (π,ρ)90↑e20  (π,ρ)91↑e20  (π,ρ)92↑e20 
 (π,ρ)93↑e20  (π,ρ)94↑e20  (π,ρ)95↑e20 
 (π,ρ)96↑e20  (π,ρ)97↑e20  (π,ρ)98↑e20 
 (π,ρ)99↑e20  (π,ρ)100↑e20  (π,ρ)101↑e21 
 (π,ρ)102↑e22  (π,ρ)103↑e22  (π,ρ)104↑e22 
 (π,ρ)105↑e22  (π,ρ)106↑e22  (π,ρ)107↑e22 
 (π,ρ)108↑e22 
End
